PRODUCT = {PIKE, SWORD, AXE, SPEAR, CLUB};
profit =  [20.0, 18.0, 3.0, 4.0, 2.0];
RESOURCE = {IRON, WOOD, SMITH, CARPENTER};
capacity = [5000, 7500, -2000, 10000];
consumption = [| 1.5, 1.0, 0.5, 2.0 
               | 1.0, 0.0, 1.0, 1.0
               | 0.0, 1.0, 0.0, 1.0 
               | 0.1, 1.0, 0.0, 1.0
               | 0.0, 0.5, 0.0, 1.0 |];